; Options: -q --produce-models --incremental --print-success --lang smt2.6
(declare-fun start!31948 () Bool)

(assert start!31948)

(declare-fun l!186 () (_ BitVec 64))

(assert (=> start!31948 (and (not (= l!186 #b0000000000000000000000000000000000000000000000001000000000000000)) (not (= (bvand l!186 #b0000000000000000000000000000000000000000000000001000000000000000) #b0000000000000000000000000000000000000000000000001000000000000000)) (bvsge (bvand l!186 #b0000000000000000000000000000000000000000000000001111111111111111) #b0000000000000000000000000000000000000000000000001000000000000000))))

(assert (=> start!31948 true))

(push 1)

(check-sat)

(pop 1)

